11
11
12
12
12
12
13
13
13
18
19
20
21
21
21
21
21
21
23
23
32
32
81
81
81
81
83
83
91
91
92
92
100
101
101
102
108
108
109
109
110
111
111
111
111
111
111
111
111
111
111
111
112
112
112
112
112
112
112
112
112
112
112
112
112
112
113
113
113
113
113
118
118
118
118
118
119
119
119
120
120
121
121
121
121
121
121
121
121
121
121
121
122
122
122
122
122
123
123
128
128
128
129
131
131
131
131
131
132
132
132
132
138
139
181
181
182
182
183
188
189
192
192
192
193
198
199
201
201
202
203
211
211
211
211
211
211
211
211
211
211
212
212
213
213
213
213
213
218
218
220
221
221
223
230
231
231
238
280
281
281
288
289
291
291
291
291
292
292
298
299
299
301
302
308
310
311
311
311
311
311
312
312
312
318
319
319
321
321
321
322
328
328
329
329
380
381
381
390
391
398
801
810
811
811
811
811
811
811
811
812
813
813
819
819
819
821
822
823
831
831
832
839
891
891
892
908
910
911
911
911
911
912
912
912
912
912
912
913
913
913
913
918
921
921
921
921
928
928
931
931
931
938
1011
1011
1012
1012
1012
1012
1013
1013
1013
1021
1021
1021
1021
1021
1021
1021
1021
1021
1022
1022
1023
1028
1029
1029
1031
1032
1081
1081
1081
1082
1091
1091
1101
1102
1102
1103
1108
1108
1110
1110
1110
1110
1110
1110
1111
1111
1111
1111
1111
1111
1112
1112
1112
1112
1112
1112
1113
1113
1113
1113
1118
1118
1119
1120
1120
1120
1120
1120
1121
1121
1121
1121
1121
1121
1121
1122
1122
1122
1123
1123
1123
1128
1128
1128
1128
1129
1129
1130
1131
1131
1131
1132
1138
1138
1180
1180
1180
1180
1180
1180
1180
1181
1181
1181
1182
1182
1182
1182
1182
1183
1189
1189
1189
1190
1190
1190
1191
1191
1192
1192
1192
1192
1192
1193
1193
1193
1193
1198
1201
1201
1201
1201
1202
1208
1208
1209
1210
1210
1211
1211
1211
1211
1211
1212
1213
1213
1213
1218
1218
1218
1218
1218
1219
1220
1221
1221
1221
1221
1221
1221
1221
1223
1228
1228
1228
1229
1229
1231
1231
1232
1238
1239
1239
1280
1281
1281
1281
1281
1282
1282
1282
1282
1282
1282
1283
1289
1291
1291
1291
1292
1301
1301
1308
1309
1309
1310
1310
1311
1311
1311
1311
1311
1311
1312
1312
1312
1318
1318
1320
1320
1321
1321
1321
1321
1329
1381
1381
1382
1382
1391
1392
1392
1801
1801
1802
1810
1810
1810
1811
1811
1811
1811
1811
1811
1811
1812
1812
1812
1812
1812
1813
1813
1813
1813
1813
1819
1819
1819
1819
1819
1820
1821
1821
1821
1821
1821
1821
1821
1823
1823
1823
1823
1831
1839
1890
1891
1891
1892
1901
1902
1902
1902
1902
1908
1910
1910
1911
1911
1911
1911
1912
1912
1912
1912
1913
1913
1913
1918
1918
1920
1921
1921
1928
1930
1931
1932
1932
1980
1981
1981
1981
1982
2011
2011
2011
2011
2011
2011
2011
2011
2011
2012
2021
2021
2023
2091
2091
2091
2092
2093
2101
2101
2101
2101
2101
2101
2101
2101
2101
2102
2102
2108
2108
2110
2110
2111
2111
2111
2111
2111
2111
2111
2112
2112
2112
2113
2113
2113
2113
2113
2113
2113
2118
2118
2118
2118
2118
2119
2119
2119
2119
2119
2119
2121
2121
2121
2121
2128
2129
2130
2130
2130
2131
2131
2131
2138
2138
2138
2138
2180
2180
2181
2181
2181
2181
2181
2181
2182
2182
2182
2182
2182
2189
2189
2189
2189
2189
2189
2189
2191
2191
2191
2191
2193
2193
2198
2198
2198
2198
2211
2211
2211
2211
2213
2213
2218
2218
2219
2283
2308
2310
2311
2311
2312
2312
2318
2318
2318
2321
2321
2380
2381
2391
2392
2801
2802
2809
2810
2811
2811
2811
2811
2812
2812
2812
2813
2819
2819
2821
2831
2891
2893
2901
2901
2901
2901
2908
2910
2910
2910
2911
2911
2911
2912
2918
2920
2920
2920
2921
2921
2923
2930
2932
2938
2981
3011
3011
3011
3012
3012
3012
3018
3019
3019
3019
3019
3029
3091
3101
3101
3101
3101
3102
3102
3102
3102
3110
3110
3111
3111
3111
3111
3111
3112
3112
3112
3112
3118
3118
3118
3118
3119
3119
3119
3119
3119
3120
3120
3120
3121
3121
3121
3121
3121
3121
3128
3128
3128
3128
3128
3129
3180
3181
3181
3181
3181
3182
3189
3191
3191
3192
3192
3201
3201
3210
3210
3210
3210
3211
3211
3211
3211
3211
3211
3211
3211
3211
3212
3212
3218
3219
3220
3221
3229
3229
3280
3289
3801
3802
3812
3821
3901
3901
3910
3911
3911
3912
3920
3921
3921
3928
3981
3981
3981
3981
8011
8011
8012
8012
8021
8029
8039
8091
8091
8101
8101
8101
8109
8109
8110
8110
8111
8112
8112
8112
8112
8112
8112
8112
8112
8112
8113
8113
8113
8113
8119
8119
8121
8121
8121
8121
8121
8122
8122
8129
8129
8132
8139
8192
8192
8192
8192
8201
8211
8211
8211
8211
8212
8212
8221
8230
8230
8231
8232
8291
8310
8310
8320
8322
8391
8901
8920
8921
8921
8931
9011
9011
9011
9012
9012
9013
9031
9031
9081
9101
9103
9110
9110
9110
9111
9111
9111
9111
9111
9111
9111
9111
9112
9112
9112
9112
9112
9112
9118
9118
9120
9121
9121
9121
9121
9121
9122
9122
9131
9131
9132
9138
9138
9180
9181
9181
9181
9181
9182
9182
9201
9201
9201
9201
9210
9211
9211
9211
9211
9211
9212
9212
9212
9218
9218
9231
9232
9238
9310
9310
9311
9311
9311
9312
9318
9320
9321
9322
9801
9801
9801
9802
9810
9811
9812
9812
9813
9813
9822
9822
9823
9831
